
n_res = 6;
rcap = [65, 58, 807, 860, 765, 816];
rtype = [1, 1, 2, 2, 2, 2];
n_tasks = 50;
modes =  [{1, 2, 3, 4, 5, 6, 7, 8, 9}, {10, 11, 12, 13, 14, 15, 16, 17, 18}, {19, 20, 21, 22, 23, 24, 25, 26, 27}, {28, 29, 30, 31, 32, 33, 34, 35, 36}, {37, 38, 39, 40, 41, 42, 43, 44, 45}, {46, 47, 48, 49, 50, 51, 52, 53, 54}, {55, 56, 57, 58, 59, 60, 61, 62, 63}, {64, 65, 66, 67, 68, 69, 70, 71, 72}, {73, 74, 75, 76, 77, 78, 79, 80, 81}, {82, 83, 84, 85, 86, 87, 88, 89, 90}, {91, 92, 93, 94, 95, 96, 97, 98, 99}, {100, 101, 102, 103, 104, 105, 106, 107, 108}, {109, 110, 111, 112, 113, 114, 115, 116, 117}, {118, 119, 120, 121, 122, 123, 124, 125, 126}, {127, 128, 129, 130, 131, 132, 133, 134, 135}, {136, 137, 138, 139, 140, 141, 142, 143, 144}, {145, 146, 147, 148, 149, 150, 151, 152, 153}, {154, 155, 156, 157, 158, 159, 160, 161, 162}, {163, 164, 165, 166, 167, 168, 169, 170, 171}, {172, 173, 174, 175, 176, 177, 178, 179, 180}, {181, 182, 183, 184, 185, 186, 187, 188, 189}, {190, 191, 192, 193, 194, 195, 196, 197, 198}, {199, 200, 201, 202, 203, 204, 205, 206, 207}, {208, 209, 210, 211, 212, 213, 214, 215, 216}, {217, 218, 219, 220, 221, 222, 223, 224, 225}, {226, 227, 228, 229, 230, 231, 232, 233, 234}, {235, 236, 237, 238, 239, 240, 241, 242, 243}, {244, 245, 246, 247, 248, 249, 250, 251, 252}, {253, 254, 255, 256, 257, 258, 259, 260, 261}, {262, 263, 264, 265, 266, 267, 268, 269, 270}, {271, 272, 273, 274, 275, 276, 277, 278, 279}, {280, 281, 282, 283, 284, 285, 286, 287, 288}, {289, 290, 291, 292, 293, 294, 295, 296, 297}, {298, 299, 300, 301, 302, 303, 304, 305, 306}, {307, 308, 309, 310, 311, 312, 313, 314, 315}, {316, 317, 318, 319, 320, 321, 322, 323, 324}, {325, 326, 327, 328, 329, 330, 331, 332, 333}, {334, 335, 336, 337, 338, 339, 340, 341, 342}, {343, 344, 345, 346, 347, 348, 349, 350, 351}, {352, 353, 354, 355, 356, 357, 358, 359, 360}, {361, 362, 363, 364, 365, 366, 367, 368, 369}, {370, 371, 372, 373, 374, 375, 376, 377, 378}, {379, 380, 381, 382, 383, 384, 385, 386, 387}, {388, 389, 390, 391, 392, 393, 394, 395, 396}, {397, 398, 399, 400, 401, 402, 403, 404, 405}, {406, 407, 408, 409, 410, 411, 412, 413, 414}, {415, 416, 417, 418, 419, 420, 421, 422, 423}, {424, 425, 426, 427, 428, 429, 430, 431, 432}, {433, 434, 435, 436, 437, 438, 439, 440, 441}, {442, 443, 444, 445, 446, 447, 448, 449, 450}];
succ =  [{13, 7, 2}, {20, 16, 14, 12, 10, 8}, {20, 19, 15, 14, 13, 9}, {20, 19, 15, 11, 9}, {20, 13, 12, 9}, {19, 17, 16, 15, 13}, {25, 20, 19, 15, 14}, {25, 19, 11}, {21, 17, 16}, {25, 22, 15}, {23, 22, 21, 18}, {25, 22, 19, 17}, {26, 25, 24, 23, 22}, {26, 23, 17}, {21, 18}, {28, 25, 18}, {18}, {33, 32, 24}, {33, 31, 30, 29, 28, 27}, {34, 32, 30, 26}, {30, 27, 26}, {33, 31, 30, 29, 28}, {33, 32, 31, 30, 29}, {31, 30, 29, 27}, {34, 33, 31, 30}, {33, 31, 28}, {42, 41, 39, 36, 35, 34}, {42, 41, 39, 36, 35}, {42, 41, 39, 37, 35}, {42, 39, 36, 35}, {41, 40, 37}, {41, 40, 37}, {50, 45, 42, 39, 38}, {45, 40, 37}, {50, 46, 45, 40, 38}, {40, 37}, {50, 46, 38}, {49, 48, 44, 43}, {40}, {48, 43}, {49, 45}, {48, 44}, {47}, {47}, {47}, {49}, {}, {}, {}, {}];
n_opt = 450;
dur = [5, 7, 8, 13, 17, 20, 22, 23, 28, 9, 11, 12, 13, 20, 23, 28, 29, 30, 2, 6, 7, 8, 9, 10, 15, 28, 29, 2, 3, 4, 5, 6, 7, 9, 19, 30, 13, 14, 16, 20, 25, 27, 28, 29, 30, 2, 6, 12, 13, 14, 15, 20, 22, 23, 1, 2, 3, 7, 12, 13, 19, 23, 28, 3, 8, 11, 12, 14, 15, 26, 27, 29, 5, 6, 10, 11, 13, 15, 23, 27, 29, 3, 4, 12, 13, 14, 18, 21, 25, 28, 3, 4, 8, 9, 10, 20, 23, 27, 28, 2, 6, 7, 8, 10, 15, 16, 19, 29, 2, 3, 4, 8, 9, 10, 11, 29, 30, 1, 2, 3, 5, 6, 7, 8, 9, 17, 6, 9, 11, 13, 14, 27, 28, 29, 30, 2, 5, 6, 7, 14, 15, 16, 17, 22, 6, 9, 16, 17, 18, 19, 20, 26, 28, 5, 6, 9, 13, 14, 15, 23, 25, 30, 2, 5, 9, 16, 18, 20, 21, 22, 23, 4, 7, 12, 13, 15, 16, 20, 27, 28, 2, 6, 7, 13, 14, 15, 20, 21, 28, 1, 5, 6, 9, 10, 18, 19, 24, 25, 1, 2, 3, 4, 7, 10, 23, 24, 25, 3, 4, 6, 11, 13, 15, 16, 17, 18, 2, 3, 4, 6, 8, 16, 18, 19, 27, 5, 6, 16, 17, 18, 21, 23, 24, 28, 1, 2, 4, 6, 10, 13, 16, 21, 27, 7, 10, 12, 13, 14, 15, 16, 25, 26, 3, 8, 13, 14, 15, 18, 19, 22, 25, 3, 4, 5, 6, 12, 13, 14, 17, 18, 1, 5, 7, 9, 15, 17, 22, 26, 30, 2, 5, 7, 8, 9, 19, 24, 28, 30, 14, 17, 18, 19, 21, 26, 27, 29, 30, 5, 7, 10, 11, 12, 17, 21, 24, 25, 2, 4, 17, 18, 19, 20, 21, 22, 28, 5, 7, 9, 10, 16, 18, 20, 25, 26, 1, 7, 15, 16, 17, 22, 24, 27, 29, 4, 8, 10, 15, 16, 17, 18, 19, 22, 2, 7, 13, 16, 17, 18, 24, 25, 29, 4, 5, 6, 11, 12, 13, 14, 15, 22, 2, 16, 18, 19, 20, 21, 25, 26, 27, 3, 4, 6, 10, 11, 14, 16, 18, 28, 1, 4, 9, 11, 18, 19, 23, 25, 27, 8, 9, 10, 17, 20, 21, 22, 24, 30, 1, 4, 5, 6, 7, 11, 22, 24, 28, 1, 4, 8, 10, 15, 18, 19, 23, 24, 1, 2, 3, 4, 8, 19, 20, 21, 29, 1, 2, 13, 14, 16, 17, 21, 25, 29, 3, 4, 5, 11, 21, 22, 24, 27, 30, 3, 4, 10, 11, 14, 16, 21, 24, 27];
rreq = [|29, 28, 28, 28, 27, 27, 27, 27, 27, 26, 26, 26, 26, 26, 26, 26, 26, 26, 29, 28, 26, 25, 24, 23, 22, 22, 20, 25, 22, 22, 20, 19, 19, 17, 17, 15, 24, 23, 23, 23, 22, 22, 21, 20, 20, 15, 14, 12, 11, 10, 10, 9, 8, 7, 24, 23, 20, 18, 16, 14, 11, 8, 8, 23, 19, 18, 15, 11, 10, 9, 6, 2, 26, 23, 20, 20, 16, 12, 10, 7, 5, 29, 27, 24, 24, 22, 19, 19, 17, 15, 30, 26, 23, 19, 17, 12, 12, 6, 4, 25, 25, 23, 19, 18, 17, 15, 12, 12, 30, 28, 24, 22, 22, 20, 17, 16, 13, 9, 9, 8, 6, 6, 5, 3, 3, 1, 28, 28, 26, 26, 25, 23, 23, 21, 21, 17, 16, 16, 16, 15, 15, 15, 15, 15, 28, 28, 26, 24, 24, 23, 22, 20, 19, 6, 5, 4, 4, 3, 3, 3, 2, 2, 19, 19, 19, 19, 19, 19, 19, 19, 19, 29, 25, 23, 20, 19, 17, 14, 11, 10, 24, 20, 19, 17, 14, 12, 7, 5, 4, 24, 22, 22, 20, 16, 15, 14, 10, 8, 13, 12, 11, 11, 9, 9, 8, 8, 7, 19, 17, 17, 16, 14, 14, 13, 12, 11, 9, 7, 7, 6, 6, 6, 5, 4, 4, 18, 16, 16, 14, 13, 12, 9, 7, 6, 17, 15, 14, 13, 11, 9, 7, 6, 3, 9, 7, 6, 6, 5, 5, 3, 3, 2, 16, 14, 13, 11, 9, 9, 6, 6, 3, 15, 15, 15, 15, 15, 15, 15, 15, 15, 25, 22, 20, 20, 18, 15, 13, 13, 10, 26, 23, 22, 18, 16, 15, 14, 12, 9, 21, 21, 19, 18, 16, 15, 15, 14, 12, 28, 25, 21, 18, 18, 14, 11, 9, 6, 19, 18, 18, 18, 18, 18, 18, 18, 18, 24, 23, 23, 22, 21, 21, 20, 20, 20, 22, 19, 18, 16, 14, 12, 12, 10, 9, 13, 11, 10, 10, 8, 6, 4, 4, 2, 26, 20, 19, 14, 13, 10, 9, 3, 2, 21, 20, 18, 18, 17, 15, 14, 13, 11, 25, 24, 24, 23, 23, 23, 23, 22, 22, 22, 21, 19, 18, 18, 16, 14, 14, 12, 21, 20, 18, 18, 15, 15, 14, 12, 11, 18, 17, 16, 14, 14, 12, 10, 9, 9, 18, 16, 15, 15, 13, 12, 10, 7, 7, 30, 29, 28, 28, 26, 26, 25, 24, 24, 18, 18, 17, 16, 14, 13, 13, 11, 10, 17, 16, 16, 15, 15, 15, 15, 14, 14, 12, 12, 12, 12, 12, 12, 12, 12, 12, 28, 25, 23, 21, 17, 16, 13, 13, 10
 |18, 17, 15, 14, 11, 10, 8, 8, 6, 28, 27, 25, 25, 23, 23, 22, 21, 19, 1, 1, 1, 1, 1, 1, 1, 1, 1, 11, 10, 10, 10, 10, 9, 9, 9, 9, 9, 9, 9, 8, 7, 7, 6, 6, 6, 16, 13, 12, 10, 8, 7, 5, 5, 4, 11, 9, 9, 8, 8, 7, 7, 6, 6, 23, 22, 21, 21, 20, 19, 19, 17, 17, 24, 23, 22, 20, 19, 19, 17, 16, 16, 29, 28, 27, 26, 26, 26, 25, 25, 24, 18, 17, 16, 14, 12, 10, 7, 5, 2, 16, 15, 13, 12, 11, 10, 10, 8, 8, 21, 20, 20, 19, 19, 19, 19, 18, 18, 4, 4, 4, 4, 4, 4, 4, 4, 4, 24, 22, 22, 22, 21, 20, 20, 19, 19, 26, 22, 19, 17, 15, 13, 10, 4, 4, 23, 22, 19, 18, 15, 11, 10, 9, 5, 9, 8, 7, 6, 5, 5, 5, 4, 3, 14, 14, 13, 12, 11, 10, 9, 8, 8, 28, 27, 26, 25, 25, 25, 24, 23, 22, 26, 25, 23, 22, 20, 16, 14, 14, 11, 14, 13, 12, 12, 11, 10, 9, 9, 8, 28, 27, 26, 26, 25, 25, 24, 24, 24, 28, 24, 23, 19, 18, 16, 13, 9, 6, 9, 8, 7, 6, 5, 4, 3, 3, 2, 20, 18, 16, 14, 11, 10, 9, 6, 5, 24, 23, 22, 22, 22, 21, 21, 20, 20, 9, 9, 9, 8, 8, 8, 8, 7, 7, 27, 26, 25, 25, 25, 24, 24, 23, 23, 19, 17, 16, 16, 15, 14, 13, 12, 10, 16, 15, 14, 13, 13, 12, 12, 11, 10, 24, 22, 21, 20, 19, 19, 18, 17, 15, 18, 15, 14, 14, 13, 10, 9, 9, 7, 27, 25, 21, 20, 15, 13, 11, 9, 6, 28, 28, 28, 27, 27, 27, 26, 26, 26, 7, 6, 6, 5, 4, 4, 3, 1, 1, 25, 25, 25, 25, 25, 25, 25, 25, 25, 8, 8, 8, 8, 7, 7, 7, 7, 7, 9, 8, 8, 8, 8, 8, 8, 8, 8, 21, 17, 15, 13, 13, 9, 8, 7, 5, 29, 25, 25, 22, 20, 17, 13, 12, 10, 18, 17, 17, 17, 17, 17, 17, 17, 17, 29, 29, 28, 28, 27, 26, 25, 25, 24, 21, 20, 20, 19, 19, 18, 18, 18, 17, 27, 24, 24, 23, 21, 21, 19, 18, 18, 17, 15, 13, 9, 8, 6, 5, 2, 1, 20, 19, 19, 19, 17, 17, 17, 15, 15, 27, 25, 24, 23, 19, 17, 16, 12, 11, 20, 18, 15, 13, 11, 8, 7, 4, 2, 26, 26, 21, 18, 14, 11, 11, 8, 4
 |26, 25, 21, 20, 19, 17, 16, 14, 11, 24, 22, 22, 20, 17, 16, 15, 13, 11, 16, 14, 14, 13, 13, 13, 12, 12, 11, 20, 20, 20, 19, 19, 19, 18, 18, 18, 18, 17, 17, 17, 15, 15, 14, 14, 13, 24, 24, 24, 24, 24, 23, 23, 23, 23, 11, 10, 9, 8, 7, 6, 6, 5, 4, 24, 22, 22, 20, 19, 19, 18, 17, 16, 14, 13, 12, 10, 9, 8, 8, 6, 6, 28, 25, 23, 21, 19, 14, 12, 10, 8, 18, 17, 14, 13, 11, 9, 8, 7, 6, 17, 16, 15, 15, 14, 13, 12, 12, 11, 10, 10, 9, 8, 7, 5, 4, 4, 3, 9, 9, 9, 9, 9, 9, 9, 9, 9, 8, 7, 7, 7, 7, 7, 7, 7, 7, 21, 20, 18, 16, 15, 12, 10, 7, 7, 25, 22, 22, 17, 15, 14, 11, 9, 8, 22, 21, 19, 15, 15, 12, 11, 6, 4, 24, 22, 19, 18, 16, 15, 13, 10, 10, 28, 27, 25, 23, 21, 21, 18, 18, 15, 9, 8, 6, 6, 4, 3, 3, 2, 1, 23, 20, 19, 15, 13, 12, 8, 8, 6, 23, 22, 21, 21, 20, 20, 19, 18, 18, 24, 23, 23, 20, 19, 19, 16, 15, 14, 29, 29, 28, 28, 27, 26, 26, 25, 24, 27, 23, 21, 18, 15, 12, 10, 4, 3, 29, 27, 26, 24, 24, 23, 21, 20, 18, 29, 28, 25, 25, 23, 21, 20, 17, 17, 16, 13, 11, 11, 9, 8, 7, 5, 3, 30, 25, 23, 22, 19, 19, 15, 15, 12, 27, 23, 21, 19, 15, 12, 11, 8, 6, 23, 23, 22, 20, 20, 19, 19, 17, 17, 26, 24, 24, 24, 23, 22, 22, 22, 21, 15, 14, 13, 11, 11, 9, 8, 8, 7, 15, 14, 13, 13, 11, 11, 9, 9, 8, 28, 28, 27, 24, 22, 21, 20, 19, 18, 24, 24, 21, 21, 19, 17, 17, 15, 13, 26, 26, 24, 22, 21, 19, 16, 14, 13, 23, 22, 21, 16, 13, 13, 9, 8, 4, 24, 22, 22, 20, 15, 13, 13, 8, 6, 13, 12, 11, 9, 8, 7, 6, 5, 5, 20, 20, 20, 20, 20, 20, 20, 20, 20, 13, 11, 9, 8, 7, 6, 6, 4, 3, 22, 22, 22, 22, 21, 21, 21, 21, 21, 29, 29, 29, 29, 29, 29, 29, 29, 29, 30, 28, 28, 28, 26, 26, 26, 24, 24, 16, 16, 15, 15, 14, 14, 14, 13, 13, 16, 15, 14, 14, 13, 13, 12, 12, 11, 8, 7, 7, 6, 6, 6, 5, 5, 5, 22, 22, 19, 16, 16, 14, 12, 9, 8
 |22, 21, 21, 21, 21, 21, 21, 21, 21, 8, 7, 7, 6, 5, 5, 5, 4, 4, 28, 27, 24, 22, 20, 18, 16, 14, 12, 26, 25, 25, 25, 25, 25, 25, 25, 25, 24, 23, 22, 22, 20, 20, 20, 19, 18, 17, 14, 13, 11, 11, 10, 7, 5, 5, 18, 17, 16, 16, 15, 14, 14, 13, 12, 25, 24, 24, 24, 23, 23, 22, 21, 21, 23, 22, 21, 21, 20, 20, 20, 19, 19, 20, 19, 18, 17, 16, 15, 13, 13, 11, 26, 24, 23, 21, 17, 17, 14, 13, 11, 28, 27, 25, 24, 24, 24, 22, 22, 21, 8, 7, 7, 7, 7, 7, 7, 7, 7, 12, 10, 9, 7, 6, 6, 4, 3, 2, 25, 24, 24, 22, 21, 21, 20, 19, 18, 18, 17, 16, 14, 14, 12, 12, 11, 10, 15, 13, 13, 11, 10, 9, 7, 5, 4, 23, 23, 23, 22, 22, 22, 22, 21, 21, 18, 17, 17, 17, 16, 15, 14, 14, 13, 28, 26, 26, 25, 24, 24, 23, 23, 22, 30, 29, 28, 28, 27, 26, 26, 24, 24, 21, 21, 21, 21, 21, 21, 21, 21, 21, 17, 16, 16, 16, 15, 15, 15, 15, 15, 22, 22, 21, 19, 19, 19, 17, 16, 16, 16, 15, 15, 15, 14, 14, 13, 13, 13, 27, 27, 27, 26, 26, 26, 25, 25, 25, 21, 20, 19, 18, 18, 17, 17, 16, 16, 24, 22, 22, 19, 18, 17, 14, 13, 13, 11, 10, 9, 9, 9, 8, 8, 7, 7, 19, 19, 18, 17, 16, 15, 14, 14, 13, 28, 27, 27, 26, 25, 24, 23, 22, 20, 24, 23, 21, 20, 17, 15, 12, 11, 9, 20, 20, 20, 20, 20, 20, 20, 20, 20, 27, 26, 25, 24, 23, 23, 22, 22, 21, 8, 7, 7, 6, 6, 5, 5, 4, 3, 28, 27, 27, 26, 26, 26, 25, 25, 25, 18, 17, 16, 14, 14, 12, 11, 11, 10, 23, 20, 17, 16, 13, 10, 8, 6, 4, 10, 9, 9, 9, 8, 8, 7, 7, 6, 24, 24, 23, 23, 22, 21, 20, 19, 19, 21, 21, 21, 21, 20, 20, 20, 19, 19, 19, 16, 15, 13, 12, 11, 10, 9, 7, 15, 15, 14, 13, 13, 13, 12, 12, 11, 22, 22, 20, 19, 18, 18, 16, 15, 15, 24, 22, 21, 19, 17, 15, 13, 12, 11, 8, 8, 7, 7, 6, 6, 5, 4, 4, 29, 28, 26, 23, 21, 20, 16, 15, 12, 21, 20, 18, 18, 15, 14, 13, 12, 11, 17, 17, 16, 15, 13, 12, 11, 10, 10, 20, 20, 20, 19, 19, 18, 17, 17, 17
 |25, 24, 23, 22, 21, 21, 21, 19, 19, 24, 20, 20, 17, 14, 11, 8, 7, 4, 22, 21, 19, 18, 16, 13, 13, 9, 8, 25, 24, 24, 23, 23, 23, 23, 22, 22, 19, 17, 16, 15, 15, 13, 12, 11, 11, 26, 24, 22, 17, 16, 13, 12, 8, 7, 30, 29, 28, 27, 26, 26, 25, 24, 23, 24, 23, 23, 22, 22, 21, 20, 19, 19, 28, 27, 26, 26, 25, 25, 25, 24, 24, 24, 21, 20, 18, 16, 11, 11, 9, 7, 15, 14, 14, 13, 13, 13, 12, 12, 12, 24, 22, 21, 18, 15, 11, 9, 9, 4, 15, 13, 13, 12, 12, 11, 11, 11, 10, 24, 23, 21, 20, 19, 17, 16, 16, 14, 13, 12, 12, 12, 11, 11, 11, 11, 11, 13, 11, 11, 11, 9, 9, 8, 7, 7, 5, 4, 3, 3, 2, 2, 2, 1, 1, 23, 22, 22, 20, 20, 17, 16, 15, 14, 27, 26, 25, 24, 23, 21, 21, 19, 19, 18, 18, 18, 18, 18, 18, 18, 18, 18, 6, 5, 5, 5, 4, 4, 3, 3, 3, 20, 20, 20, 20, 20, 19, 19, 19, 19, 1, 1, 1, 1, 1, 1, 1, 1, 1, 18, 16, 15, 14, 13, 12, 11, 10, 10, 19, 18, 17, 16, 15, 13, 13, 12, 11, 29, 28, 28, 28, 27, 26, 25, 24, 24, 10, 10, 9, 9, 9, 8, 8, 7, 7, 15, 14, 14, 13, 13, 13, 13, 12, 12, 18, 14, 14, 11, 10, 10, 7, 7, 5, 19, 17, 15, 12, 10, 9, 8, 7, 4, 28, 26, 25, 24, 22, 20, 17, 16, 14, 6, 6, 5, 5, 5, 4, 4, 3, 3, 25, 25, 25, 24, 24, 24, 23, 23, 23, 17, 16, 16, 16, 16, 16, 16, 16, 16, 17, 15, 14, 13, 12, 10, 10, 9, 8, 12, 12, 10, 10, 9, 9, 8, 7, 6, 28, 27, 22, 19, 17, 14, 11, 11, 7, 19, 15, 14, 12, 10, 8, 6, 4, 1, 14, 12, 12, 11, 11, 11, 10, 10, 9, 17, 17, 16, 14, 14, 13, 12, 10, 10, 19, 18, 18, 18, 18, 18, 18, 18, 18, 28, 27, 27, 26, 26, 26, 26, 25, 25, 26, 25, 24, 22, 21, 20, 19, 19, 18, 15, 12, 11, 10, 10, 8, 6, 5, 5, 25, 23, 19, 16, 15, 12, 11, 7, 3, 3, 3, 3, 3, 3, 3, 3, 3, 3, 9, 8, 7, 5, 5, 3, 2, 1, 1, 29, 26, 25, 22, 22, 20, 18, 14, 13, 22, 18, 17, 16, 13, 10, 8, 6, 5, 28, 27, 27, 27, 26, 26, 26, 26, 26
 |24, 23, 21, 20, 18, 17, 16, 15, 15, 28, 25, 25, 22, 20, 19, 18, 15, 15, 26, 25, 22, 19, 16, 14, 12, 8, 5, 25, 25, 23, 18, 17, 15, 12, 9, 7, 17, 17, 15, 12, 9, 9, 5, 4, 3, 5, 4, 3, 3, 2, 2, 2, 1, 1, 29, 27, 27, 26, 26, 26, 25, 24, 24, 9, 8, 7, 5, 5, 5, 4, 2, 2, 30, 25, 22, 18, 16, 11, 11, 6, 2, 29, 28, 28, 27, 26, 25, 25, 23, 23, 17, 13, 12, 12, 10, 9, 7, 4, 3, 24, 22, 18, 15, 15, 13, 10, 6, 4, 26, 26, 26, 25, 25, 24, 24, 23, 23, 22, 21, 18, 16, 14, 14, 11, 10, 6, 14, 13, 11, 10, 9, 8, 7, 7, 6, 11, 11, 11, 11, 10, 10, 10, 9, 9, 29, 24, 24, 20, 20, 18, 16, 13, 10, 20, 17, 16, 14, 11, 9, 6, 6, 4, 15, 15, 15, 15, 15, 15, 15, 15, 15, 27, 25, 23, 21, 18, 16, 16, 12, 11, 25, 25, 25, 25, 25, 25, 25, 25, 25, 20, 18, 16, 15, 14, 12, 12, 10, 9, 30, 26, 23, 22, 21, 18, 14, 13, 12, 27, 25, 25, 23, 21, 19, 18, 17, 15, 28, 26, 22, 18, 16, 14, 9, 5, 3, 23, 22, 21, 20, 19, 19, 19, 17, 17, 16, 15, 15, 14, 12, 11, 11, 9, 8, 21, 20, 20, 20, 19, 19, 18, 17, 17, 24, 23, 23, 23, 21, 21, 20, 20, 19, 21, 21, 19, 15, 15, 12, 10, 7, 5, 27, 27, 27, 27, 26, 26, 26, 26, 26, 15, 13, 12, 11, 10, 10, 9, 7, 6, 29, 28, 27, 25, 25, 23, 21, 21, 20, 3, 2, 2, 2, 1, 1, 1, 1, 1, 18, 17, 17, 16, 16, 16, 15, 15, 14, 29, 28, 28, 28, 28, 27, 27, 27, 27, 21, 20, 18, 18, 16, 14, 12, 10, 9, 24, 21, 19, 19, 15, 13, 8, 6, 4, 29, 27, 23, 23, 20, 20, 18, 14, 13, 8, 8, 8, 7, 6, 6, 6, 5, 5, 19, 16, 15, 14, 13, 11, 8, 7, 7, 29, 28, 27, 26, 25, 25, 24, 23, 23, 21, 17, 16, 15, 12, 9, 8, 7, 4, 16, 15, 12, 10, 9, 8, 6, 3, 2, 22, 22, 22, 22, 22, 21, 21, 21, 21, 26, 24, 21, 18, 16, 11, 9, 7, 4, 13, 13, 12, 11, 11, 10, 10, 10, 9, 28, 27, 27, 26, 24, 23, 22, 21, 19, 25, 24, 24, 24, 24, 23, 23, 23, 23, 12, 9, 8, 8, 6, 5, 3, 3, 1|];